objective value:                            +infinity
z0                                                  1 	(obj:2)
z1                                                  1 	(obj:2)
z2                                                  1 	(obj:2)
z3                                                  1 	(obj:2)
z4                                                  1 	(obj:2)
z5                                                  1 	(obj:2)
z6                                                  1 	(obj:2)
z8                                                  1 	(obj:2)
z9                                                  1 	(obj:2)
z12                                                 1 	(obj:2)
z13                                                 1 	(obj:2)
z14                                                 1 	(obj:2)
z17                                                 1 	(obj:2)
z18                                                 1 	(obj:2)
z19                                                 1 	(obj:2)
z20                                                 1 	(obj:2)
z21                                                 1 	(obj:2)
z22                                                 1 	(obj:2)
b1                                   119.211454994345 	(obj:52.6283455648641)
b12                                 -2258.27332724753 	(obj:-41.9383790445756)
b6                                   74074.4325527134 	(obj:-34.8672240233153)
b13                                  4850.71528898875 	(obj:-44.1196620167504)
b3                                  -71.2403166800845 	(obj:55.3571985008127)
b14                                 -4327.17266740481 	(obj:-41.8236948547066)
b0                                   1706.98905790017 	(obj:-244)
b8                                  -71250.1032349813 	(obj:-34.8618399652924)
b17                                 -65.4752301554272 	(obj:-38.3340512744772)
b4                                  -3086.71577260745 	(obj:-35.5750594391118)
b18                                 -231.626412329529 	(obj:-26.1843932024341)
b9                                   3666.52955725819 	(obj:-44.2642809268566)
b19                                 -756.905119322735 	(obj:-76.0165025876527)
b2                                  -40.7326412187532 	(obj:21.6939463438429)
b20                                  300.790790511869 	(obj:-58.9590395119583)
b21                                  38.5971364866562 	(obj:-43.0903556715317)
b5                                  -413.596067339756 	(obj:-44.4677469346556)
b22                                  1736.70531856172 	(obj:-71.6456480247213)
bx(1)                                1933.58977249553 	(obj:0)
EXP(1)                                      +infinity 	(obj:0)
LOG(1)                                      +infinity 	(obj:2)
bx(2)                                299.283118007542 	(obj:0)
EXP(2)                                      +infinity 	(obj:0)
LOG(2)                               299.283118007542 	(obj:2)
bx(3)                                984.131318177696 	(obj:0)
EXP(3)                                      +infinity 	(obj:0)
LOG(3)                                      +infinity 	(obj:2)
bx(4)                                113.815363691899 	(obj:0)
EXP(4)                                      +infinity 	(obj:0)
LOG(4)                               113.815363691899 	(obj:2)
bx(5)                                4.58758147277376 	(obj:0)
EXP(5)                                98.256506529332 	(obj:0)
LOG(5)                               4.59770747438913 	(obj:2)
bx(6)                                2631.91948351573 	(obj:0)
EXP(6)                                      +infinity 	(obj:0)
LOG(6)                                      +infinity 	(obj:2)
bx(7)                                1932.01409078155 	(obj:0)
EXP(7)                                      +infinity 	(obj:0)
LOG(7)                                      +infinity 	(obj:2)
bx(8)                                235.606297013353 	(obj:0)
EXP(8)                                      +infinity 	(obj:0)
LOG(8)                               235.606297013353 	(obj:2)
bx(9)                                2798.18991214531 	(obj:0)
EXP(9)                                      +infinity 	(obj:0)
LOG(9)                                      +infinity 	(obj:2)
bx(10)                                3.8821860398424 	(obj:0)
EXP(10)                               48.530188123283 	(obj:0)
LOG(10)                              3.90258234476138 	(obj:2)
bx(11)                               1521.60349195845 	(obj:0)
EXP(11)                                     +infinity 	(obj:0)
LOG(11)                                     +infinity 	(obj:2)
bx(12)                               2348.14270848895 	(obj:0)
EXP(12)                                     +infinity 	(obj:0)
LOG(12)                                     +infinity 	(obj:2)
bx(13)                                10701.040857843 	(obj:0)
EXP(13)                                     +infinity 	(obj:0)
LOG(13)                                     +infinity 	(obj:2)
bx(14)                               8401.67154005223 	(obj:0)
EXP(14)                                     +infinity 	(obj:0)
LOG(14)                                     +infinity 	(obj:2)
bx(15)                               7818.70146376223 	(obj:0)
EXP(15)                                     +infinity 	(obj:0)
LOG(15)                                     +infinity 	(obj:2)
bx(16)                               7222.19691259719 	(obj:0)
EXP(16)                                     +infinity 	(obj:0)
LOG(16)                                     +infinity 	(obj:2)
bx(17)                               6253.39969487273 	(obj:0)
EXP(17)                                     +infinity 	(obj:0)
LOG(17)                                     +infinity 	(obj:2)
bx(18)                               4632.55600991806 	(obj:0)
EXP(18)                                     +infinity 	(obj:0)
LOG(18)                                     +infinity 	(obj:2)
bx(19)                               1532.27104466594 	(obj:0)
EXP(19)                                     +infinity 	(obj:0)
LOG(19)                                     +infinity 	(obj:2)
bx(20)                               5051.26157460244 	(obj:0)
EXP(20)                                     +infinity 	(obj:0)
LOG(20)                                     +infinity 	(obj:2)
bx(21)                                 2135.018127202 	(obj:0)
EXP(21)                                     +infinity 	(obj:0)
LOG(21)                                     +infinity 	(obj:2)
bx(22)                               1953.55507844673 	(obj:0)
EXP(22)                                     +infinity 	(obj:0)
LOG(22)                                     +infinity 	(obj:2)
bx(23)                               2291.15359877228 	(obj:0)
EXP(23)                                     +infinity 	(obj:0)
LOG(23)                                     +infinity 	(obj:2)
bx(24)                               2036.96097927563 	(obj:0)
EXP(24)                                     +infinity 	(obj:0)
LOG(24)                                     +infinity 	(obj:2)
bx(25)                              -530.234187643958 	(obj:0)
bx(26)                              -560.133020062736 	(obj:0)
bx(27)                              -465.273671499471 	(obj:0)
bx(28)                              -717.265216641083 	(obj:0)
bx(29)                              -917.248925629868 	(obj:0)
bx(30)                              -235.726015601508 	(obj:0)
bx(31)                               358.069029943283 	(obj:0)
EXP(31)                                     +infinity 	(obj:0)
LOG(31)                              358.069029943283 	(obj:2)
bx(32)                               734.952994061424 	(obj:0)
EXP(32)                                     +infinity 	(obj:0)
LOG(32)                                     +infinity 	(obj:2)
bx(33)                               424.083553434722 	(obj:0)
EXP(33)                                     +infinity 	(obj:0)
LOG(33)                              424.083553434722 	(obj:2)
bx(34)                               229.102931696905 	(obj:0)
EXP(34)                                     +infinity 	(obj:0)
LOG(34)                              229.102931696905 	(obj:2)
bx(35)                               5.10611518135806 	(obj:0)
EXP(35)                               165.02800410667 	(obj:0)
LOG(35)                              5.11215647356617 	(obj:2)
bx(36)                              -485.587727994581 	(obj:0)
bx(37)                              -389.618618974847 	(obj:0)
bx(38)                              -99.8457716360535 	(obj:0)
bx(39)                              -4.23546585514305 	(obj:0)
EXP(39)                            0.0144730662746763 	(obj:0)
LOG(39)                            0.0143693311631227 	(obj:2)
bx(40)                              -622.805898035632 	(obj:0)
bx(41)                              -860.252090181401 	(obj:0)
bx(42)                              -1063.22191023262 	(obj:0)
bx(43)                              -1057.64949990436 	(obj:0)
bx(44)                              -3.84393131515935 	(obj:0)
EXP(44)                            0.0214092691012218 	(obj:0)
LOG(44)                            0.0211833100886259 	(obj:2)
bx(45)                               633.199039046423 	(obj:0)
EXP(45)                                     +infinity 	(obj:0)
LOG(45)                              633.199039046423 	(obj:2)
bx(46)                               637.679919306129 	(obj:0)
EXP(46)                                     +infinity 	(obj:0)
LOG(46)                              637.679919306129 	(obj:2)
bx(47)                               1038.13174150155 	(obj:0)
EXP(47)                                     +infinity 	(obj:0)
LOG(47)                                     +infinity 	(obj:2)
bx(48)                               799.499049181089 	(obj:0)
EXP(48)                                     +infinity 	(obj:0)
LOG(48)                                     +infinity 	(obj:2)
bx(49)                               826.830249197118 	(obj:0)
EXP(49)                                     +infinity 	(obj:0)
LOG(49)                                     +infinity 	(obj:2)
bx(50)                               4.40917979302776 	(obj:0)
EXP(50)                              82.2020131820268 	(obj:0)
LOG(50)                              4.42127154443378 	(obj:2)
bx(51)                               -64.272609578805 	(obj:0)
bx(52)                              -448.484297163458 	(obj:0)
bx(53)                              -616.701815863544 	(obj:0)
bx(54)                               -733.40891589135 	(obj:0)
bx(55)                              -534.354654157925 	(obj:0)
bx(56)                               787.283930549138 	(obj:0)
EXP(56)                                     +infinity 	(obj:0)
LOG(56)                                     +infinity 	(obj:2)
bx(57)                               1770.65439575645 	(obj:0)
EXP(57)                                     +infinity 	(obj:0)
LOG(57)                                     +infinity 	(obj:2)
bx(58)                               6.81058540115964 	(obj:0)
EXP(58)                              907.401845589758 	(obj:0)
LOG(58)                              6.81168684192216 	(obj:2)
bx(59)                               6.06450323358058 	(obj:0)
EXP(59)                              430.308861575859 	(obj:0)
LOG(59)                              6.06682444964226 	(obj:2)
bx(60)                               1709.08236998879 	(obj:0)
EXP(60)                                     +infinity 	(obj:0)
LOG(60)                                     +infinity 	(obj:2)
bx(61)                               2663.29458953381 	(obj:0)
EXP(61)                                     +infinity 	(obj:0)
LOG(61)                                     +infinity 	(obj:2)
bx(62)                               306.226096567746 	(obj:0)
EXP(62)                                     +infinity 	(obj:0)
LOG(62)                              306.226096567746 	(obj:2)
bx(63)                               574.297753831242 	(obj:0)
EXP(63)                                     +infinity 	(obj:0)
LOG(63)                              574.297753831242 	(obj:2)
bx(64)                               531.040072040004 	(obj:0)
EXP(64)                                     +infinity 	(obj:0)
LOG(64)                              531.040072040004 	(obj:2)
bx(65)                               713.119015358233 	(obj:0)
EXP(65)                                     +infinity 	(obj:0)
LOG(65)                                     +infinity 	(obj:2)
bx(66)                               12.8077367141695 	(obj:0)
EXP(66)                              365030.691076046 	(obj:0)
LOG(66)                              12.8077394536614 	(obj:2)
bx(67)                               308.831000234796 	(obj:0)
EXP(67)                                     +infinity 	(obj:0)
LOG(67)                              308.831000234796 	(obj:2)
bx(68)                               381.421074138306 	(obj:0)
EXP(68)                                     +infinity 	(obj:0)
LOG(68)                              381.421074138306 	(obj:2)
bx(69)                               694.329610127345 	(obj:0)
EXP(69)                                     +infinity 	(obj:0)
LOG(69)                              694.329610127345 	(obj:2)
bx(70)                               331.819049505259 	(obj:0)
EXP(70)                                     +infinity 	(obj:0)
LOG(70)                              331.819049505259 	(obj:2)
bx(71)                               2163.48996200438 	(obj:0)
EXP(71)                                     +infinity 	(obj:0)
LOG(71)                                     +infinity 	(obj:2)
bx(72)                               1868.46730085779 	(obj:0)
EXP(72)                                     +infinity 	(obj:0)
LOG(72)                                     +infinity 	(obj:2)
bx(73)                               1984.55615071013 	(obj:0)
EXP(73)                                     +infinity 	(obj:0)
LOG(73)                                     +infinity 	(obj:2)
bx(74)                                1921.6966077243 	(obj:0)
EXP(74)                                     +infinity 	(obj:0)
LOG(74)                                     +infinity 	(obj:2)
bx(75)                               4326.54825514783 	(obj:0)
EXP(75)                                     +infinity 	(obj:0)
LOG(75)                                     +infinity 	(obj:2)
bx(76)                               527.570370937233 	(obj:0)
EXP(76)                                     +infinity 	(obj:0)
LOG(76)                              527.570370937233 	(obj:2)
bx(77)                               1179.96110204934 	(obj:0)
EXP(77)                                     +infinity 	(obj:0)
LOG(77)                                     +infinity 	(obj:2)
bx(78)                               1608.71704666833 	(obj:0)
EXP(78)                                     +infinity 	(obj:0)
LOG(78)                                     +infinity 	(obj:2)
bx(79)                               2117.19542824565 	(obj:0)
EXP(79)                                     +infinity 	(obj:0)
LOG(79)                                     +infinity 	(obj:2)
bx(80)                               2743.20615915209 	(obj:0)
EXP(80)                                     +infinity 	(obj:0)
LOG(80)                                     +infinity 	(obj:2)
bx(81)                                3125.1765364397 	(obj:0)
EXP(81)                                     +infinity 	(obj:0)
LOG(81)                                     +infinity 	(obj:2)
bx(82)                               5908.99152375189 	(obj:0)
EXP(82)                                     +infinity 	(obj:0)
LOG(82)                                     +infinity 	(obj:2)
bx(83)                               5851.09792605268 	(obj:0)
EXP(83)                                     +infinity 	(obj:0)
LOG(83)                                     +infinity 	(obj:2)
bx(84)                               1414.76827609653 	(obj:0)
EXP(84)                                     +infinity 	(obj:0)
LOG(84)                                     +infinity 	(obj:2)
bx(85)                                4.4257258949674 	(obj:0)
EXP(85)                              83.5734507562724 	(obj:0)
LOG(85)                              4.43762039651227 	(obj:2)
bx(86)                               29.6141266453496 	(obj:0)
EXP(86)                              7265270498413.25 	(obj:0)
LOG(86)                              29.6141266453498 	(obj:2)
bx(87)                               3.36342038910402 	(obj:0)
EXP(87)                              28.8878297094646 	(obj:0)
LOG(87)                               3.3974513644079 	(obj:2)
bx(88)                               340.241429560229 	(obj:0)
EXP(88)                                     +infinity 	(obj:0)
LOG(88)                              340.241429560229 	(obj:2)
bx(89)                               785.146466261706 	(obj:0)
EXP(89)                                     +infinity 	(obj:0)
LOG(89)                                     +infinity 	(obj:2)
bx(90)                               828.505994575481 	(obj:0)
EXP(90)                                     +infinity 	(obj:0)
LOG(90)                                     +infinity 	(obj:2)
bx(91)                               156.314768497986 	(obj:0)
EXP(91)                                     +infinity 	(obj:0)
LOG(91)                              156.314768497986 	(obj:2)
bx(92)                               2203.94470388609 	(obj:0)
EXP(92)                                     +infinity 	(obj:0)
LOG(92)                                     +infinity 	(obj:2)
bx(93)                               15.4811363842077 	(obj:0)
EXP(93)                              5288982.19810015 	(obj:0)
LOG(93)                                15.48113657328 	(obj:2)
bx(94)                               1427.11942728123 	(obj:0)
EXP(94)                                     +infinity 	(obj:0)
LOG(94)                                     +infinity 	(obj:2)
bx(95)                               921.656992943456 	(obj:0)
EXP(95)                                     +infinity 	(obj:0)
LOG(95)                                     +infinity 	(obj:2)
bx(96)                               772.447446419361 	(obj:0)
EXP(96)                                     +infinity 	(obj:0)
LOG(96)                                     +infinity 	(obj:2)
bx(97)                               1474.65560079026 	(obj:0)
EXP(97)                                     +infinity 	(obj:0)
LOG(97)                                     +infinity 	(obj:2)
bx(98)                               1755.74314190903 	(obj:0)
EXP(98)                                     +infinity 	(obj:0)
LOG(98)                                     +infinity 	(obj:2)
bx(99)                               3455.33094497101 	(obj:0)
EXP(99)                                     +infinity 	(obj:0)
LOG(99)                                     +infinity 	(obj:2)
bx(100)                              1596.57924902787 	(obj:0)
EXP(100)                                    +infinity 	(obj:0)
LOG(100)                                    +infinity 	(obj:2)
bx(101)                              1974.05619784815 	(obj:0)
EXP(101)                                    +infinity 	(obj:0)
LOG(101)                                    +infinity 	(obj:2)
bx(102)                               1075.1347576172 	(obj:0)
EXP(102)                                    +infinity 	(obj:0)
LOG(102)                                    +infinity 	(obj:2)
bx(103)                              1604.92168848711 	(obj:0)
EXP(103)                                    +infinity 	(obj:0)
LOG(103)                                    +infinity 	(obj:2)
bx(104)                              954.668073583519 	(obj:0)
EXP(104)                                    +infinity 	(obj:0)
LOG(104)                                    +infinity 	(obj:2)
bx(105)                              657.440194975644 	(obj:0)
EXP(105)                                    +infinity 	(obj:0)
LOG(105)                             657.440194975644 	(obj:2)
bx(106)                              4.85265816171449 	(obj:0)
EXP(106)                             128.080396155386 	(obj:0)
LOG(106)                             4.86043543624774 	(obj:2)
bx(107)                              865.549792057667 	(obj:0)
EXP(107)                                    +infinity 	(obj:0)
LOG(107)                                    +infinity 	(obj:2)
bx(108)                              629.563725855663 	(obj:0)
EXP(108)                                    +infinity 	(obj:0)
LOG(108)                             629.563725855663 	(obj:2)
bx(109)                              472.057378301902 	(obj:0)
EXP(109)                                    +infinity 	(obj:0)
LOG(109)                             472.057378301902 	(obj:2)
bx(110)                              1325.64826388569 	(obj:0)
EXP(110)                                    +infinity 	(obj:0)
LOG(110)                                    +infinity 	(obj:2)
bx(111)                              815.021983897691 	(obj:0)
EXP(111)                                    +infinity 	(obj:0)
LOG(111)                                    +infinity 	(obj:2)
bx(112)                              4.57525576087323 	(obj:0)
EXP(112)                             97.0528582866995 	(obj:0)
LOG(112)                             4.58550670353515 	(obj:2)
bx(113)                              1695.17813617189 	(obj:0)
EXP(113)                                    +infinity 	(obj:0)
LOG(113)                                    +infinity 	(obj:2)
bx(114)                              2541.83772103345 	(obj:0)
EXP(114)                                    +infinity 	(obj:0)
LOG(114)                                    +infinity 	(obj:2)
bx(115)                              5240.84857705883 	(obj:0)
EXP(115)                                    +infinity 	(obj:0)
LOG(115)                                    +infinity 	(obj:2)
bx(116)                              3032.86354749522 	(obj:0)
EXP(116)                                    +infinity 	(obj:0)
LOG(116)                                    +infinity 	(obj:2)
bx(117)                              2959.82604804777 	(obj:0)
EXP(117)                                    +infinity 	(obj:0)
LOG(117)                                    +infinity 	(obj:2)
bx(118)                              2948.89542180898 	(obj:0)
EXP(118)                                    +infinity 	(obj:0)
LOG(118)                                    +infinity 	(obj:2)
bx(119)                              3442.48154955018 	(obj:0)
EXP(119)                                    +infinity 	(obj:0)
LOG(119)                                    +infinity 	(obj:2)
bx(120)                              821.954312655408 	(obj:0)
EXP(120)                                    +infinity 	(obj:0)
LOG(120)                                    +infinity 	(obj:2)
bx(121)                              1373.67754347414 	(obj:0)
EXP(121)                                    +infinity 	(obj:0)
LOG(121)                                    +infinity 	(obj:2)
bx(122)                              1070.58149267766 	(obj:0)
EXP(122)                                    +infinity 	(obj:0)
LOG(122)                                    +infinity 	(obj:2)
bx(123)                              2946.62435771719 	(obj:0)
EXP(123)                                    +infinity 	(obj:0)
LOG(123)                                    +infinity 	(obj:2)
bx(124)                              15058.2665819398 	(obj:0)
EXP(124)                                    +infinity 	(obj:0)
LOG(124)                                    +infinity 	(obj:2)
bx(125)                              9769.01860996019 	(obj:0)
EXP(125)                                    +infinity 	(obj:0)
LOG(125)                                    +infinity 	(obj:2)
bx(126)                              7448.03868762956 	(obj:0)
EXP(126)                                    +infinity 	(obj:0)
LOG(126)                                    +infinity 	(obj:2)
bx(127)                               9213.7630718109 	(obj:0)
EXP(127)                                    +infinity 	(obj:0)
LOG(127)                                    +infinity 	(obj:2)
bx(128)                              22730.5744285346 	(obj:0)
EXP(128)                                    +infinity 	(obj:0)
LOG(128)                                    +infinity 	(obj:2)
bx(129)                              10833.9065388185 	(obj:0)
EXP(129)                                    +infinity 	(obj:0)
LOG(129)                                    +infinity 	(obj:2)
bx(130)                              332.348245729888 	(obj:0)
EXP(130)                                    +infinity 	(obj:0)
LOG(130)                             332.348245729888 	(obj:2)
bx(131)                              745.905527184292 	(obj:0)
EXP(131)                                    +infinity 	(obj:0)
LOG(131)                                    +infinity 	(obj:2)
bx(132)                              136.753524427433 	(obj:0)
EXP(132)                                    +infinity 	(obj:0)
LOG(132)                             136.753524427433 	(obj:2)
bx(133)                              1343.75055179326 	(obj:0)
EXP(133)                                    +infinity 	(obj:0)
LOG(133)                                    +infinity 	(obj:2)
bx(134)                              5354.60295966073 	(obj:0)
EXP(134)                                    +infinity 	(obj:0)
LOG(134)                                    +infinity 	(obj:2)
bx(135)                              8370.84635192016 	(obj:0)
EXP(135)                                    +infinity 	(obj:0)
LOG(135)                                    +infinity 	(obj:2)
bx(136)                               3881.2566819191 	(obj:0)
EXP(136)                                    +infinity 	(obj:0)
LOG(136)                                    +infinity 	(obj:2)
bx(137)                              524.120040435029 	(obj:0)
EXP(137)                                    +infinity 	(obj:0)
LOG(137)                             524.120040435029 	(obj:2)
bx(138)                              1648.24489300146 	(obj:0)
EXP(138)                                    +infinity 	(obj:0)
LOG(138)                                    +infinity 	(obj:2)
bx(139)                             -457.539200532841 	(obj:0)
bx(140)                             -702.596172892118 	(obj:0)
bx(141)                             -295.385373505574 	(obj:0)
bx(142)                             -3.07802178524071 	(obj:0)
EXP(142)                           0.0460502639151535 	(obj:0)
LOG(142)                           0.0450214179443704 	(obj:2)
bx(143)                             -103.421039281594 	(obj:0)
bx(144)                             -4.16559019288206 	(obj:0)
EXP(144)                           0.0155205520770934 	(obj:0)
LOG(144)                           0.0154013402156788 	(obj:2)
bx(145)                              4.10330126324743 	(obj:0)
EXP(145)                             60.5398159377244 	(obj:0)
LOG(145)                             4.11968437895222 	(obj:2)
bx(146)                               350.74853365299 	(obj:0)
EXP(146)                                    +infinity 	(obj:0)
LOG(146)                              350.74853365299 	(obj:2)
bx(147)                              890.793868788489 	(obj:0)
EXP(147)                                    +infinity 	(obj:0)
LOG(147)                                    +infinity 	(obj:2)
bx(148)                              1093.64388702737 	(obj:0)
EXP(148)                                    +infinity 	(obj:0)
LOG(148)                                    +infinity 	(obj:2)
bx(149)                              -66.108373756734 	(obj:0)
bx(150)                             -5.33675539710907 	(obj:0)
EXP(150)                          0.00481145667773169 	(obj:0)
LOG(150)                          0.00479991861517499 	(obj:2)
bx(151)                             -4.14769730167768 	(obj:0)
EXP(151)                           0.0158007590071204 	(obj:0)
LOG(151)                           0.0156772265860678 	(obj:2)
bx(152)                             -229.602060134129 	(obj:0)
bx(153)                             -4.12118515371617 	(obj:0)
EXP(153)                           0.0162252735992219 	(obj:0)
LOG(153)                           0.0160950505622033 	(obj:2)
bx(154)                             -2546.20478452407 	(obj:0)
bx(155)                             -513.227584940455 	(obj:0)
bx(156)                             -390.264860343748 	(obj:0)
